POSCAR file written by Ovito 3.7.11     
    1.000000000000000     
     9.2673828380450871    0.0000000000000000    0.0000000000000000
     0.0000000000000000   10.6774198184255980    0.0181059130255116
     0.0000000000000000    0.0172071267203564   10.1116507383919334
  Si/             C/            
              48              47
Direct
  0.1666838884551951  0.0829104143630300  0.2509461405263772
  0.1659398766439312  0.4181255487434055  0.7497930873512019
  0.0006773210610937  0.0010580248173117  0.0018424833461452
 -0.0010384761852976 -0.0016623882232717  0.5008863097996963
  0.0000561422349893  0.3331861937145334  0.2495174854839032
 -0.0010593156308909  0.1660508963198372  0.7504014960245294
  0.1666764197404174  0.2505641481143482 -0.0001913468920989
  0.1664968279139087  0.2491754117617270  0.5000435585058783
  0.1665755813656141  0.5830298585624354  0.2492028378479276
  0.1671564828891284  0.9175440426097675  0.7502942468009804
 -0.0000786517344107  0.5008021209972117 -0.0019183707007834
  0.0001328256595434  0.4989674118142340  0.4990230711555311
 -0.0007340342213672  0.8324180054759146  0.2507451961155557
 -0.0000713062800240  0.6734196545736653  0.7450693884154566
  0.1662303979085008  0.7506199543195227 -0.0008570516840933
  0.1670388363187018  0.7496128533343041  0.4992412917149791
  0.4999827785448058  0.0829104143630300  0.2509461405263772
  0.5007267703560684  0.4181255487434055  0.7497930873512019
  0.3333333329999988  0.0006942277653535  0.0001394180941342
  0.3333333329999988 -0.0005479324057390  0.5002535879060994
  0.3333333329999988  0.3329119413310193  0.2499474270715162
  0.3333333329999988  0.1679210804979738  0.7499990309969065
  0.4999902272595821  0.2505641481143482 -0.0001913468920989
  0.5001698190860910  0.2491754117617270  0.5000435585058783
  0.5000910856343874  0.5830298585624354  0.2492028378479276
  0.4995101641108711  0.9175440426097675  0.7502942468009804
  0.3333333329999988  0.5005224129070748 -0.0002520091148701
  0.3333333329999988  0.4994894226824886  0.4992730995293755
  0.3333333329999988  0.8332352166354140  0.2493256271406745
  0.3333333329999988  0.6662968333071451  0.7504363823537170
  0.5004362490914985  0.7506199543195227 -0.0008570516840933
  0.4996278106812979  0.7496128533343041  0.4992412917149791
  0.8333333329999988  0.0830509819904576  0.2506034361993051
  0.8333333229999980  0.4178342464701905  0.7494986487729800
  0.6659893459389074  0.0010580248173117  0.0018424833461452
  0.6677051431852987 -0.0016623882232717  0.5008863097996963
  0.6666105247650117  0.3331861937145334  0.2495174854839032
  0.6677259826308922  0.1660508963198372  0.7504014960245294
  0.8333333229999980  0.2502634121089835 -0.0000493362385898
  0.8333333229999980  0.2494631871215365  0.4997750364111944
  0.8333333329999988  0.5819450495690808  0.2478648772921948
  0.8333333229999980  0.9117426661096186  0.7580358671008540
  0.6667453187344122  0.5008021209972117 -0.0019183707007834
  0.6665338413404575  0.4989674118142340  0.4990230711555311
  0.6674007012213682  0.8324180054759146  0.2507451961155557
  0.6667379732800250  0.6734196545736653  0.7450693884154566
  0.8333333229999980  0.7507780691783763  0.0001604317806454
  0.8333333229999980  0.7413769665035159  0.5025544321801608
  0.1662157731186713  0.0821879304590636  0.4389687340170216
  0.1667112949554792  0.4175336482817332  0.9373060680888831
  0.0002068476465870 -0.0002790523559162  0.1889420376533044
 -0.0015429197314389 -0.0024430836369992  0.6881864930235631
  0.0003545818824092  0.3323484026750029  0.4376397669855250
  0.0001020504758484  0.1672141899750969  0.9381890614532896
  0.1666627183525961  0.2497814628994233  0.1873187634561432
  0.1657229930419629  0.2504463785421935  0.6873484796371064
  0.1666006574754735  0.5828074817074809  0.4373990842894335
  0.1666192648446344  0.9175862910506050  0.9381792610908953
  0.0003593730059567  0.4999969760569503  0.1856201743395047
 -0.0015670659629698  0.5026328659344187  0.6863945658209945
 -0.0013186384993091  0.8314372244019033  0.4398334083823701
 -0.0009627475772118  0.6682331831895852  0.9354076813301148
  0.1661612826719092  0.7499373476802506  0.1869500943283156
  0.1693303844870871  0.7519275009421614  0.6860630473450238
  0.5004508938813300  0.0821879304590636  0.4389687340170216
  0.4999553520445205  0.4175336482817332  0.9373060680888831
  0.3333333329999988  0.0002248892532508  0.1875004065216538
  0.3333333329999988  0.0013255664968199  0.6876176689345949
  0.3333333329999988  0.3324702676255520  0.4379847158848693
  0.3333333329999988  0.1675548646407962  0.9378854045246596
  0.5000039286474033  0.2497814628994233  0.1873187634561432
  0.5009436539580362  0.2504463785421935  0.6873484796371064
  0.5000660095245275  0.5828074817074809  0.4373990842894335
  0.5000473821553653  0.9175862910506050  0.9381792610908953
  0.3333333329999988  0.4998038757830851  0.1870535487489748
  0.3333333329999988  0.5002366665038872  0.6867179737894176
  0.3333333329999988  0.8330573891471648  0.4369683632852400
  0.3333333329999988  0.6674091619153930  0.9377955160839231
  0.5005053643280903  0.7499373476802506  0.1869500943283156
  0.4973362625129123  0.7519275009421614  0.6860630473450238
  0.8333333329999988  0.0825875901253057  0.4385572586197582
  0.8333333229999980  0.4171008835662146  0.9371840990408558
  0.6664598193534140 -0.0002790523559162  0.1889420376533044
  0.6682095867314406 -0.0024430836369992  0.6881864930235631
  0.6663120851175920  0.3323484026750029  0.4376397669855250
  0.6665646165241527  0.1672141899750969  0.9381890614532896
  0.8333333229999980  0.2499222260334912  0.1873266861649099
  0.8333333229999980  0.2503685932224588  0.6872464983570132
  0.8333333329999988  0.5783876709460996  0.4343666378849320
  0.8333333229999980  0.9190352651787299  0.9434695711578797
  0.6663072939940448  0.4999969760569503  0.1856201743395047
  0.6682337329629714  0.5026328659344187  0.6863945658209945
  0.6679853054993105  0.8314372244019033  0.4398334083823701
  0.6676294145772129  0.6682331831895852  0.9354076813301148
  0.8333333229999980  0.7491956055874067  0.1873366234197639
 
  0.00000000E+00  0.00000000E+00  0.00000000E+00
  0.00000000E+00  0.00000000E+00  0.00000000E+00
  0.00000000E+00  0.00000000E+00  0.00000000E+00
  0.00000000E+00  0.00000000E+00  0.00000000E+00
  0.00000000E+00  0.00000000E+00  0.00000000E+00
  0.00000000E+00  0.00000000E+00  0.00000000E+00
  0.00000000E+00  0.00000000E+00  0.00000000E+00
  0.00000000E+00  0.00000000E+00  0.00000000E+00
  0.00000000E+00  0.00000000E+00  0.00000000E+00
  0.00000000E+00  0.00000000E+00  0.00000000E+00
  0.00000000E+00  0.00000000E+00  0.00000000E+00
  0.00000000E+00  0.00000000E+00  0.00000000E+00
  0.00000000E+00  0.00000000E+00  0.00000000E+00
  0.00000000E+00  0.00000000E+00  0.00000000E+00
  0.00000000E+00  0.00000000E+00  0.00000000E+00
  0.00000000E+00  0.00000000E+00  0.00000000E+00
  0.00000000E+00  0.00000000E+00  0.00000000E+00
  0.00000000E+00  0.00000000E+00  0.00000000E+00
  0.00000000E+00  0.00000000E+00  0.00000000E+00
  0.00000000E+00  0.00000000E+00  0.00000000E+00
  0.00000000E+00  0.00000000E+00  0.00000000E+00
  0.00000000E+00  0.00000000E+00  0.00000000E+00
  0.00000000E+00  0.00000000E+00  0.00000000E+00
  0.00000000E+00  0.00000000E+00  0.00000000E+00
  0.00000000E+00  0.00000000E+00  0.00000000E+00
  0.00000000E+00  0.00000000E+00  0.00000000E+00
  0.00000000E+00  0.00000000E+00  0.00000000E+00
  0.00000000E+00  0.00000000E+00  0.00000000E+00
  0.00000000E+00  0.00000000E+00  0.00000000E+00
  0.00000000E+00  0.00000000E+00  0.00000000E+00
  0.00000000E+00  0.00000000E+00  0.00000000E+00
  0.00000000E+00  0.00000000E+00  0.00000000E+00
  0.00000000E+00  0.00000000E+00  0.00000000E+00
  0.00000000E+00  0.00000000E+00  0.00000000E+00
  0.00000000E+00  0.00000000E+00  0.00000000E+00
  0.00000000E+00  0.00000000E+00  0.00000000E+00
  0.00000000E+00  0.00000000E+00  0.00000000E+00
  0.00000000E+00  0.00000000E+00  0.00000000E+00
  0.00000000E+00  0.00000000E+00  0.00000000E+00
  0.00000000E+00  0.00000000E+00  0.00000000E+00
  0.00000000E+00  0.00000000E+00  0.00000000E+00
  0.00000000E+00  0.00000000E+00  0.00000000E+00
  0.00000000E+00  0.00000000E+00  0.00000000E+00
  0.00000000E+00  0.00000000E+00  0.00000000E+00
  0.00000000E+00  0.00000000E+00  0.00000000E+00
  0.00000000E+00  0.00000000E+00  0.00000000E+00
  0.00000000E+00  0.00000000E+00  0.00000000E+00
  0.00000000E+00  0.00000000E+00  0.00000000E+00
  0.00000000E+00  0.00000000E+00  0.00000000E+00
  0.00000000E+00  0.00000000E+00  0.00000000E+00
  0.00000000E+00  0.00000000E+00  0.00000000E+00
  0.00000000E+00  0.00000000E+00  0.00000000E+00
  0.00000000E+00  0.00000000E+00  0.00000000E+00
  0.00000000E+00  0.00000000E+00  0.00000000E+00
  0.00000000E+00  0.00000000E+00  0.00000000E+00
  0.00000000E+00  0.00000000E+00  0.00000000E+00
  0.00000000E+00  0.00000000E+00  0.00000000E+00
  0.00000000E+00  0.00000000E+00  0.00000000E+00
  0.00000000E+00  0.00000000E+00  0.00000000E+00
  0.00000000E+00  0.00000000E+00  0.00000000E+00
  0.00000000E+00  0.00000000E+00  0.00000000E+00
  0.00000000E+00  0.00000000E+00  0.00000000E+00
  0.00000000E+00  0.00000000E+00  0.00000000E+00
  0.00000000E+00  0.00000000E+00  0.00000000E+00
  0.00000000E+00  0.00000000E+00  0.00000000E+00
  0.00000000E+00  0.00000000E+00  0.00000000E+00
  0.00000000E+00  0.00000000E+00  0.00000000E+00
  0.00000000E+00  0.00000000E+00  0.00000000E+00
  0.00000000E+00  0.00000000E+00  0.00000000E+00
  0.00000000E+00  0.00000000E+00  0.00000000E+00
  0.00000000E+00  0.00000000E+00  0.00000000E+00
  0.00000000E+00  0.00000000E+00  0.00000000E+00
  0.00000000E+00  0.00000000E+00  0.00000000E+00
  0.00000000E+00  0.00000000E+00  0.00000000E+00
  0.00000000E+00  0.00000000E+00  0.00000000E+00
  0.00000000E+00  0.00000000E+00  0.00000000E+00
  0.00000000E+00  0.00000000E+00  0.00000000E+00
  0.00000000E+00  0.00000000E+00  0.00000000E+00
  0.00000000E+00  0.00000000E+00  0.00000000E+00
  0.00000000E+00  0.00000000E+00  0.00000000E+00
  0.00000000E+00  0.00000000E+00  0.00000000E+00
  0.00000000E+00  0.00000000E+00  0.00000000E+00
  0.00000000E+00  0.00000000E+00  0.00000000E+00
  0.00000000E+00  0.00000000E+00  0.00000000E+00
  0.00000000E+00  0.00000000E+00  0.00000000E+00
  0.00000000E+00  0.00000000E+00  0.00000000E+00
  0.00000000E+00  0.00000000E+00  0.00000000E+00
  0.00000000E+00  0.00000000E+00  0.00000000E+00
  0.00000000E+00  0.00000000E+00  0.00000000E+00
  0.00000000E+00  0.00000000E+00  0.00000000E+00
  0.00000000E+00  0.00000000E+00  0.00000000E+00
  0.00000000E+00  0.00000000E+00  0.00000000E+00
  0.00000000E+00  0.00000000E+00  0.00000000E+00
  0.00000000E+00  0.00000000E+00  0.00000000E+00
  0.00000000E+00  0.00000000E+00  0.00000000E+00
