POSCAR file written by Ovito 3.7.11
1.0
        9.2397003174         0.0000000000         0.0000000000
        0.0000000000        10.6690864563         0.0000000000
        0.0000000000         0.0000000000        10.0822000504
   Si    C
   48   47
Direct
     0.000000000         0.166666672         0.250000000
     0.166666657         0.083333328         0.750000000
     0.000000000         0.000000000         0.000000000
     0.000000000         0.000000000         0.500000000
     0.833333333         0.416666672         0.250000000
     0.000000000         0.333333328         0.750000000
     0.833333333         0.250000000         0.000000000
     0.833333333         0.250000000         0.500000000
     0.666666666         0.666666672         0.250000000
     0.833333323         0.583333328         0.750000000
     0.666666667         0.500000000         0.000000000
     0.666666667         0.500000000         0.500000000
     0.500000000         0.916666672         0.250000000
     0.666666657         0.833333328         0.750000000
     0.500000000         0.750000000         0.000000000
     0.500000000         0.750000000         0.500000000
     0.333333333         0.166666672         0.250000000
     0.499999990         0.083333328         0.750000000
     0.333333333         0.000000000         0.000000000
     0.333333333         0.000000000         0.500000000
     0.166666666         0.416666672         0.250000000
     0.333333323         0.333333328         0.750000000
     0.166666667         0.250000000         0.000000000
     0.166666667         0.250000000         0.500000000
     0.000000000         0.666666672         0.250000000
     0.166666657         0.583333328         0.750000000
     0.000000000         0.500000000         0.000000000
     0.000000000         0.500000000         0.500000000
     0.833333333         0.916666672         0.250000000
     0.000000000         0.833333328         0.750000000
     0.833333333         0.750000000         0.000000000
     0.833333333         0.750000000         0.500000000
     0.666666666         0.166666672         0.250000000
     0.833333324         0.083333328         0.750000000
     0.666666667         0.000000000         0.000000000
     0.666666667         0.000000000         0.500000000
     0.500000000         0.416666672         0.250000000
     0.666666657         0.333333328         0.750000000
     0.500000000         0.250000000         0.000000000
     0.500000000         0.250000000         0.500000000
     0.333333333         0.666666672         0.250000000
     0.499999990         0.583333328         0.750000000
     0.333333333         0.500000000         0.000000000
     0.333333333         0.500000000         0.500000000
     0.166666666         0.916666672         0.250000000
     0.333333323         0.833333328         0.750000000
     0.166666667         0.750000000         0.000000000
     0.166666667         0.750000000         0.500000000
     0.000000000         0.166666672         0.435380012
     0.166666657         0.083333328         0.935379982
     0.000000000         0.000000000         0.189610004
     0.000000000         0.000000000         0.689610004
     0.833333333         0.416666672         0.435380012
     0.000000000         0.333333328         0.935379982
     0.833333333         0.250000000         0.189610004
     0.833333333         0.250000000         0.689610004
     0.666666666         0.666666672         0.435380012
     0.833333323         0.583333328         0.935379982
     0.666666667         0.500000000         0.189610004
     0.666666667         0.500000000         0.689610004
     0.500000000         0.916666672         0.435380012
     0.666666657         0.833333328         0.935379982
     0.500000000         0.750000000         0.189610004
     0.500000000         0.750000000         0.689610004
     0.333333333         0.166666672         0.435380012
     0.499999990         0.083333328         0.935379982
     0.333333333         0.000000000         0.189610004
     0.333333333         0.000000000         0.689610004
     0.166666666         0.416666672         0.435380012
     0.333333323         0.333333328         0.935379982
     0.166666667         0.250000000         0.189610004
     0.166666667         0.250000000         0.689610004
     0.000000000         0.666666672         0.435380012
     0.166666657         0.583333328         0.935379982
     0.000000000         0.500000000         0.189610004
     0.000000000         0.500000000         0.689610004
     0.833333333         0.916666672         0.435380012
     0.000000000         0.833333328         0.935379982
     0.833333333         0.750000000         0.189610004
     0.833333333         0.750000000         0.689610004
     0.666666666         0.166666672         0.435380012
     0.833333324         0.083333328         0.935379982
     0.666666667         0.000000000         0.189610004
     0.666666667         0.000000000         0.689610004
     0.500000000         0.416666672         0.435380012
     0.666666657         0.333333328         0.935379982
     0.500000000         0.250000000         0.189610004
     0.500000000         0.250000000         0.689610004
     0.333333333         0.666666672         0.435380012
     0.499999990         0.583333328         0.935379982
     0.333333333         0.500000000         0.189610004
     0.333333333         0.500000000         0.689610004
     0.166666666         0.916666672         0.435380012
     0.333333323         0.833333328         0.935379982
     0.166666667         0.750000000         0.189610004
