sm_isp_SD1628877-standardized_unitcell  
    1.000000000000000     
     3.0881364774282023   -0.0000000000001539   -0.0000000000000000
    -1.5440682387643685    2.6744046398141923    0.0000000000000000
     0.0000000000000000   -0.0000000000000000   10.1093682354546210
  Si/             C/            
               4               4
Direct
  0.3333333429999996  0.6666666870000029  0.2499019906910411
  0.6666666269999979  0.3333333129999971  0.7499019906910410
 -0.0000000000000000 -0.0000000000000000 -0.0001556583897178
  0.0000000000000000  0.0000000000000000  0.4998443416102822
  0.3333333429999996  0.6666666870000029  0.4379422546798857
  0.6666666269999979  0.3333333129999971  0.9379422246798832
 -0.0000000000000000 -0.0000000000000000  0.1873014290187963
  0.0000000000000000  0.0000000000000000  0.6873014290187963
 
  0.00000000E+00  0.00000000E+00  0.00000000E+00
  0.00000000E+00  0.00000000E+00  0.00000000E+00
  0.00000000E+00  0.00000000E+00  0.00000000E+00
  0.00000000E+00  0.00000000E+00  0.00000000E+00
  0.00000000E+00  0.00000000E+00  0.00000000E+00
  0.00000000E+00  0.00000000E+00  0.00000000E+00
  0.00000000E+00  0.00000000E+00  0.00000000E+00
  0.00000000E+00  0.00000000E+00  0.00000000E+00
