sm_isp_SD1628877-standardized_unitcell
1.0
        3.0799000263         0.0000000000         0.0000000000
       -1.5399500132         2.6672716639         0.0000000000
        0.0000000000         0.0000000000        10.0822000504
   Si    C
    4    4
Direct
     0.333333343         0.666666687         0.250000000
     0.666666627         0.333333313         0.750000000
     0.000000000         0.000000000         0.000000000
     0.000000000         0.000000000         0.500000000
     0.333333343         0.666666687         0.435380012
     0.666666627         0.333333313         0.935379982
     0.000000000         0.000000000         0.189610004
     0.000000000         0.000000000         0.689610004
