POSCAR file written by Ovito 3.7.11
1
9.2397000789 0.0 0.0
0.0 10.6690864562 0.0
0.0 0.0 10.0822000504
Si C 
48 47 
Direct
0.1666666667 0.083333336 0.25
0.1666666567 0.4166666865 0.75
0.0 0.0 0.0
0.0 0.0 0.5
0.0 0.3333333135 0.25
0.0 0.1666666715 0.75
0.1666666567 0.25 0.0
0.1666666567 0.25 0.5
0.1666666667 0.583333336 0.25
0.1666666567 0.9166666865 0.75
0.0 0.5 0.0
0.0 0.5 0.5
0.0 0.8333333135 0.25
0.0 0.6666666715 0.75
0.1666666567 0.75 0.0
0.1666666567 0.75 0.5
0.5 0.083333336 0.25
0.49999999 0.4166666865 0.75
0.3333333333 0.0 0.0
0.3333333333 0.0 0.5
0.3333333333 0.3333333135 0.25
0.3333333333 0.1666666715 0.75
0.49999999 0.25 0.0
0.49999999 0.25 0.5
0.5 0.583333336 0.25
0.49999999 0.9166666865 0.75
0.3333333333 0.5 0.0
0.3333333333 0.5 0.5
0.3333333333 0.8333333135 0.25
0.3333333333 0.6666666715 0.75
0.49999999 0.75 0.0
0.49999999 0.75 0.5
0.8333333333 0.083333336 0.25
0.8333333233 0.4166666865 0.75
0.6666666667 0.0 0.0
0.6666666667 0.0 0.5
0.6666666667 0.3333333135 0.25
0.6666666667 0.1666666715 0.75
0.8333333233 0.25 0.0
0.8333333233 0.25 0.5
0.8333333333 0.583333336 0.25
0.8333333233 0.9166666865 0.75
0.6666666667 0.5 0.0
0.6666666667 0.5 0.5
0.6666666667 0.8333333135 0.25
0.6666666667 0.6666666715 0.75
0.8333333233 0.75 0.0
0.8333333233 0.75 0.5
0.1666666667 0.083333336 0.435380012
0.1666666567 0.4166666865 0.935379982
0.0 0.0 0.189610004
0.0 0.0 0.689610004
0.0 0.3333333135 0.435380012
0.0 0.1666666715 0.935379982
0.1666666567 0.25 0.189610004
0.1666666567 0.25 0.689610004
0.1666666667 0.583333336 0.435380012
0.1666666567 0.9166666865 0.935379982
0.0 0.5 0.189610004
0.0 0.5 0.689610004
0.0 0.8333333135 0.435380012
0.0 0.6666666715 0.935379982
0.1666666567 0.75 0.189610004
0.1666666567 0.75 0.689610004
0.5 0.083333336 0.435380012
0.49999999 0.4166666865 0.935379982
0.3333333333 0.0 0.189610004
0.3333333333 0.0 0.689610004
0.3333333333 0.3333333135 0.435380012
0.3333333333 0.1666666715 0.935379982
0.49999999 0.25 0.189610004
0.49999999 0.25 0.689610004
0.5 0.583333336 0.435380012
0.49999999 0.9166666865 0.935379982
0.3333333333 0.5 0.189610004
0.3333333333 0.5 0.689610004
0.3333333333 0.8333333135 0.435380012
0.3333333333 0.6666666715 0.935379982
0.49999999 0.75 0.189610004
0.49999999 0.75 0.689610004
0.8333333333 0.083333336 0.435380012
0.8333333233 0.4166666865 0.935379982
0.6666666667 0.0 0.189610004
0.6666666667 0.0 0.689610004
0.6666666667 0.3333333135 0.435380012
0.6666666667 0.1666666715 0.935379982
0.8333333233 0.25 0.189610004
0.8333333233 0.25 0.689610004
0.8333333333 0.583333336 0.435380012
0.8333333233 0.9166666865 0.935379982
0.6666666667 0.5 0.189610004
0.6666666667 0.5 0.689610004
0.6666666667 0.8333333135 0.435380012
0.6666666667 0.6666666715 0.935379982
0.8333333233 0.75 0.189610004
